ITEM: TIMESTEP
0
ITEM: NUMBER OF ATOMS
60
ITEM: BOX BOUNDS pp pp pp
63.18750291 71.19151306
65.1671175 73.15069144
63.65394678 71.72543716
ITEM: ATOMS id type x y z
1 1 67.39773249 69.31749624 64.15394678
2 1 67.54242126 67.93963995 64.37927672
3 1 66.12735158 69.96147209 64.40370477
4 1 68.44690653 70.22935301 64.55232179
5 1 66.42109724 67.16416236 64.86116732
6 1 65.03888803 69.20871991 64.87147354
7 1 66.39138705 71.27132783 64.95643872
8 1 68.74065219 67.43204328 65.00978433
9 1 67.82495085 71.43688735 65.04828908
10 1 65.18794492 67.78926646 65.10360614
11 1 69.61002323 69.73663149 65.16435234
12 1 69.75908012 68.31717804 65.39648494
13 1 66.92631182 66.17729417 65.7894997
14 1 68.35987561 66.34285368 65.88135007
15 1 64.18159948 69.74309806 65.90609808
16 1 65.55922139 71.79004599 65.96074352
17 1 68.38433831 72.11631329 66.14175257
18 1 64.4227786 67.44637413 66.28169652
19 1 70.18629848 70.43656915 66.29082724
20 1 64.43789737 71.0145684 66.44263412
21 1 70.42747759 68.13984522 66.66642569
22 1 63.80082291 68.65390846 66.77766382
23 1 69.58256924 71.60871662 66.77226019
24 1 66.18356874 65.84445032 66.93306607
25 1 66.13549664 72.48998365 67.08721843
26 1 69.00868566 66.17071761 67.11407512
27 1 67.52704976 72.65069144 67.17637711
28 1 64.91318783 66.48842617 67.18282407
29 1 70.69151306 69.44970096 67.21915963
30 1 70.0578597 67.08257439 67.51245013
31 1 64.32115627 71.23523454 67.8669338
32 1 63.68750291 68.86810797 68.16022431
33 1 69.46582814 71.82938276 68.19655986
34 1 66.85196621 65.6671175 68.20300682
35 1 65.37033031 72.14709132 68.26530881
36 1 68.24351933 65.82782528 68.2921655
37 1 68.19544723 72.47335862 68.44631786
38 1 64.79644672 66.70909232 68.60712375
39 1 70.57819306 69.66390047 68.60172012
40 1 63.95153837 70.17796372 68.71295825
41 1 69.94111859 67.30324054 68.93674981
42 1 64.19271749 67.88123979 69.08855669
43 1 69.95623737 70.87143481 69.09768741
44 1 65.99467766 66.20149564 69.23763136
45 1 68.81979458 66.52776294 69.41864041
46 1 70.19741648 68.57471088 69.47328585
47 1 66.01914035 71.97495525 69.49803386
48 1 67.45270415 72.14051477 69.58988423
49 1 64.61993584 70.0006309 69.98289899
50 1 64.76899273 68.58117745 70.2150316
51 1 69.19107104 70.52854247 70.27577779
52 1 66.55406512 66.88092159 70.33109485
53 1 65.63836378 70.88576566 70.3695996
54 1 67.98762892 67.0464811 70.42294522
55 1 69.34012793 69.10908902 70.50791039
56 1 67.95791873 71.15364658 70.51821661
57 1 65.93210943 68.08845592 70.82706215
58 1 68.25166438 68.35633684 70.97567916
59 1 66.83659471 70.37816898 71.00010721
60 1 66.98128348 69.0003127 71.22543716
